(set-option :print-success false)
(set-logic QF_UF)
(declare-sort x41 0)
(declare-sort x13 0)
(declare-fun x113 () x13)
(declare-fun x115 () x13)
(declare-fun x87 (x13 x13) x13)
(declare-fun x25 () x13)
(declare-fun x20 () x13)
(declare-fun x27 () x13)
(assert (not (and (and (and (= x20 (x87 x27 x27)) (= (x87 x20 x27) x115)) (= x113 (x87 x25 x27))) (= (x87 x20 x20) x25))))
(assert (not (and (and (and (= (x87 x27 x27) x115) (= x20 (x87 x115 x27))) (= x113 (x87 x25 x27))) (= (x87 x115 x115) x25))))
(assert (not (and (and (and (= (x87 x20 x20) x115) (= (x87 x115 x20) x25)) (= x27 (x87 x113 x20))) (= (x87 x115 x115) x113))))
(assert (not (and (= (x87 x115 x115) x113) (and (= (x87 x113 x27) x20) (and (= (x87 x115 x27) x25) (= (x87 x27 x27) x115))))))
(assert (not (and (= (x87 x113 x113) x27) (and (and (= x115 (x87 x113 x25)) (= (x87 x25 x25) x113)) (= x20 (x87 x27 x25))))))
(assert (not (and (= x25 (x87 x115 x115)) (and (= (x87 x25 x113) x27) (and (= x20 (x87 x115 x113)) (= x115 (x87 x113 x113)))))))
(assert (not (and (= (x87 x113 x113) x25) (and (= (x87 x25 x27) x115) (and (= (x87 x113 x27) x20) (= (x87 x27 x27) x113))))))
(assert (not (and (= (x87 x25 x25) x115) (and (and (= (x87 x25 x27) x20) (= (x87 x27 x27) x25)) (= x113 (x87 x115 x27))))))
(assert (not (and (= x25 (x87 x20 x20)) (and (= (x87 x25 x115) x27) (and (= x20 (x87 x115 x115)) (= (x87 x20 x115) x113))))))
(assert (not (and (and (and (= (x87 x27 x25) x115) (= (x87 x25 x25) x27)) (= x20 (x87 x113 x25))) (= x113 (x87 x27 x27)))))
(assert (not (and (and (and (= (x87 x20 x20) x113) (= x25 (x87 x113 x20))) (= x115 (x87 x27 x20))) (= (x87 x113 x113) x27))))
(assert (not (and (and (and (= (x87 x25 x25) x115) (= (x87 x115 x25) x113)) (= (x87 x20 x25) x27)) (= (x87 x115 x115) x20))))
(assert (not (and (and (= x27 (x87 x25 x20)) (and (= x113 (x87 x115 x20)) (= x115 (x87 x20 x20)))) (= (x87 x115 x115) x25))))
(assert (not (and (and (= x115 (x87 x25 x27)) (and (= x20 (x87 x27 x27)) (= x113 (x87 x20 x27)))) (= x25 (x87 x20 x20)))))
(assert (not (and (and (= x27 (x87 x115 x25)) (and (= x20 (x87 x113 x25)) (= x113 (x87 x25 x25)))) (= (x87 x113 x113) x115))))
(assert (not (and (= x27 (x87 x115 x115)) (and (and (= x113 (x87 x115 x20)) (= x115 (x87 x20 x20))) (= x25 (x87 x27 x20))))))
(assert (not (and (= x25 (x87 x27 x27)) (and (and (= (x87 x27 x115) x20) (= x27 (x87 x115 x115))) (= (x87 x25 x115) x113)))))
(assert (not (and (= (x87 x115 x115) x27) (and (and (= x25 (x87 x115 x20)) (= (x87 x20 x20) x115)) (= x113 (x87 x27 x20))))))
(assert (not (and (and (= x25 (x87 x27 x113)) (and (= x115 (x87 x113 x113)) (= (x87 x115 x113) x20))) (= (x87 x115 x115) x27))))
(assert (not (and (= x20 (x87 x27 x27)) (and (= (x87 x20 x115) x113) (and (= (x87 x115 x115) x27) (= x25 (x87 x27 x115)))))))
(assert (or (or (and (not (= (x87 x113 (x87 x113 x115)) x115)) (and (and (not (= x25 (x87 x113 (x87 x113 x25)))) (and (not (= x27 (x87 x113 (x87 x113 x27)))) (not (= x20 (x87 x113 (x87 x113 x20)))))) (not (= (x87 x113 (x87 x113 x113)) x113)))) (or (or (and (not (= (x87 x20 (x87 x20 x115)) x115)) (and (not (= x113 (x87 x20 (x87 x20 x113)))) (and (not (= x25 (x87 x20 (x87 x20 x25)))) (and (not (= x27 (x87 x20 (x87 x20 x27)))) (not (= x20 (x87 x20 (x87 x20 x20)))))))) (and (not (= (x87 x27 (x87 x27 x115)) x115)) (and (not (= x113 (x87 x27 (x87 x27 x113)))) (and (and (not (= x27 (x87 x27 (x87 x27 x27)))) (not (= (x87 x27 (x87 x27 x20)) x20))) (not (= (x87 x27 (x87 x27 x25)) x25)))))) (and (not (= x115 (x87 x25 (x87 x25 x115)))) (and (not (= (x87 x25 (x87 x25 x113)) x113)) (and (not (= x25 (x87 x25 (x87 x25 x25)))) (and (not (= x20 (x87 x25 (x87 x25 x20)))) (not (= (x87 x25 (x87 x25 x27)) x27)))))))) (and (not (= x115 (x87 x115 (x87 x115 x115)))) (and (and (and (not (= (x87 x115 (x87 x115 x20)) x20)) (not (= (x87 x115 (x87 x115 x27)) x27))) (not (= (x87 x115 (x87 x115 x25)) x25))) (not (= (x87 x115 (x87 x115 x113)) x113))))))
(assert (not (and (= (x87 x115 x115) x113) (and (= (x87 x113 x25) x20) (and (= (x87 x25 x25) x115) (= x27 (x87 x115 x25)))))))
(assert (let ((x84 (x87 x20 x115)) (x19 (x87 x115 x20)) (x138 (x87 x115 x113)) (x122 (x87 x115 x115)) (x95 (x87 x27 x113)) (x59 (x87 x27 x115)) (x69 (x87 x25 x25)) (x133 (x87 x25 x27)) (x33 (x87 x27 x20)) (x120 (x87 x20 x25)) (x79 (x87 x27 x27)) (x21 (x87 x20 x113)) (x145 (x87 x27 x25)) (x100 (x87 x113 x27)) (x65 (x87 x113 x113)) (x54 (x87 x113 x115)) (x5 (x87 x113 x25)) (x14 (x87 x115 x25)) (x97 (x87 x25 x115)) (x74 (x87 x20 x27)) (x94 (x87 x115 x27)) (x76 (x87 x113 x20)) (x23 (x87 x20 x20)) (x149 (x87 x25 x113)) (x89 (x87 x25 x20))) (let ((x134 (= x113 x23)) (x139 (= x115 x149)) (x157 (= x113 x69)) (x15 (= x115 x33)) (x6 (= x33 x27)) (x136 (= x94 x115)) (x63 (= x84 x25)) (x7 (= x27 x120)) (x77 (= x133 x25)) (x104 (= x76 x27)) (x82 (= x84 x113)) (x46 (= x20 x122)) (x60 (= x27 x54)) (x50 (= x97 x25)) (x126 (= x100 x20)) (x53 (= x113 x120)) (x55 (= x113 x149)) (x146 (= x113 x14)) (x107 (= x115 x65)) (x132 (= x25 x54)) (x28 (= x20 x65)) (x8 (= x20 x69)) (x158 (= x115 x21)) (x34 (= x113 x97)) (x92 (= x120 x20)) (x152 (= x149 x20)) (x109 (= x20 x138)) (x66 (= x20 x84)) (x43 (= x21 x25)) (x112 (= x23 x20)) (x9 (= x95 x27)) (x131 (= x97 x27)) (x102 (= x25 x23)) (x30 (= x21 x113)) (x26 (= x76 x113)) (x156 (= x59 x113)) (x130 (= x89 x115)) (x36 (= x27 x5)) (x11 (= x145 x27)) (x45 (= x20 x14)) (x118 (= x149 x27)) (x148 (= x54 x20)) (x127 (= x27 x79)) (x124 (= x19 x20)) (x123 (= x54 x115)) (x18 (= x59 x20)) (x80 (= x27 x122)) (x147 (= x27 x133)) (x42 (= x113 x89)) (x38 (= x19 x115)) (x48 (= x120 x115)) (x31 (= x20 x97)) (x4 (= x25 x145)) (x58 (= x69 x115)) (x99 (= x25 x5)) (x51 (= x65 x25)) (x111 (= x113 x65)) (x110 (= x74 x27)) (x137 (= x113 x95)) (x22 (= x149 x25)) (x150 (= x23 x27)) (x116 (= x14 x27)) (x24 (= x120 x25)) (x68 (= x94 x20)) (x81 (= x89 x27)) (x106 (= x33 x25)) (x70 (= x27 x65)) (x10 (= x76 x25)) (x154 (= x79 x25)) (x17 (= x84 x115)) (x153 (= x145 x115)) (x128 (= x113 x122)) (x2 (= x113 x79)) (x44 (= x95 x25)) (x105 (= x27 x94)) (x114 (= x100 x113)) (x125 (= x25 x19)) (x117 (= x138 x27)) (x129 (= x20 x33)) (x16 (= x27 x21)) (x12 (= x76 x20)) (x52 (= x113 x5)) (x93 (= x25 x74)) (x119 (= x25 x100)) (x83 (= x19 x113)) (x3 (= x5 x115)) (x144 (= x115 x79)) (x78 (= x27 x19)) (x73 (= x115 x100)) (x141 (= x138 x25)) (x56 (= x115 x97)) (x72 (= x113 x94)) (x96 (= x20 x89)) (x71 (= x25 x59)) (x67 (= x133 x20)) (x135 (= x69 x27)) (x35 (= x59 x115)) (x64 (= x145 x20)) (x90 (= x133 x113)) (x155 (= x20 x79)) (x61 (= x84 x27)) (x49 (= x145 x113)) (x88 (= x115 x74)) (x39 (= x27 x59)) (x75 (= x69 x25)) (x85 (= x115 x76)) (x86 (= x20 x5)) (x151 (= x95 x20)) (x121 (= x138 x113)) (x91 (= x115 x122)) (x47 (= x115 x138)) (x62 (= x122 x25)) (x1 (= x113 x74)) (x37 (= x25 x94)) (x57 (= x25 x14)) (x40 (= x113 x54)) (x142 (= x20 x74)) (x103 (= x89 x25)) (x98 (= x23 x115)) (x108 (= x115 x14)) (x29 (= x133 x115)) (x140 (= x27 x100)) (x143 (= x95 x115)) (x32 (= x21 x20)) (x101 (= x33 x113))) (and (and (and (and (and (and (and (or (or (or x90 (or x1 x2)) x114) x72) (or (or (or x49 (or x101 x2)) x137) x156)) (and (and (or (or x44 (or (or x106 x154) x4)) x71) (or (or x119 (or (or x154 x93) x77)) x37)) (and (and (or x18 (or x151 (or (or x155 x129) x64))) (or (or (or (or x155 x142) x67) x126) x68)) (and (or (or x140 (or x147 (or x110 x127))) x105) (or (or x9 (or (or x6 x127) x11)) x39))))) (and (or (or (or x153 (or x144 x15)) x143) x35) (or (or x73 (or (or x88 x144) x29)) x136))) (and (and (or (or x158 (or x48 (or x98 x88))) x17) (or (or (or (or x15 x98) x130) x85) x38)) (and (and (and (or (or x10 (or (or x102 x106) x103)) x125) (or (or (or (or x102 x93) x24) x43) x63)) (and (and (or (or (or x81 (or x6 x150)) x104) x78) (or (or (or x7 (or x110 x150)) x16) x61)) (and (or x66 (or x32 (or x92 (or x112 x142)))) (or x124 (or (or x96 (or x112 x129)) x12))))) (and (or x82 (or x30 (or (or x1 x134) x53))) (or x83 (or (or (or x134 x101) x42) x26)))))) (and (and (or (or (or x58 (or x48 x153)) x3) x108) (or (or x139 (or (or x130 x29) x58)) x56)) (and (and (and (and (or (or x86 (or (or x64 x92) x8)) x45) (or (or (or x8 (or x67 x96)) x152) x31)) (and (or x116 (or (or (or x11 x7) x135) x36)) (or (or (or (or x81 x147) x135) x118) x131))) (and (or x50 (or (or (or x103 x77) x75) x22)) (or (or x99 (or (or x4 x24) x75)) x57))) (and (or (or (or (or x49 x53) x157) x52) x146) (or (or (or x157 (or x90 x42)) x55) x34))))) (and (and (or (or (or x3 (or x85 x73)) x107) x123) (or x47 (or x107 (or (or x143 x158) x139)))) (and (and (and (or x132 (or x51 (or x99 (or x10 x119)))) (or (or (or x22 (or x44 x43)) x51) x141)) (and (and (or x148 (or x28 (or (or x126 x12) x86))) (or (or x28 (or x152 (or x32 x151))) x109)) (and (or x60 (or x70 (or x36 (or x140 x104)))) (or x117 (or (or x118 (or x9 x16)) x70))))) (and (or (or (or x52 (or x26 x114)) x111) x40) (or x121 (or x111 (or x55 (or x137 x30)))))))) (and (and (or x91 (or (or (or x17 x35) x56) x123)) (or x91 (or x47 (or (or x136 x38) x108)))) (and (and (or (or (or (or x72 x83) x146) x121) x128) (or x128 (or x40 (or (or x156 x82) x34)))) (and (and (or x62 (or (or (or x63 x71) x50) x132)) (or (or (or (or x125 x37) x57) x141) x62)) (and (and (or x80 (or (or (or x39 x61) x131) x60)) (or x80 (or (or x116 (or x78 x105)) x117))) (and (or (or (or (or x66 x18) x31) x148) x46) (or (or x109 (or x45 (or x68 x124))) x46))))))))))
(assert (not (and (= x27 (x87 x115 x115)) (and (= (x87 x27 x25) x113) (and (= (x87 x25 x25) x115) (= x20 (x87 x115 x25)))))))
(assert (not (and (and (= (x87 x113 x25) x115) (and (= x27 (x87 x25 x25)) (= x20 (x87 x27 x25)))) (= (x87 x27 x27) x113))))
(assert (not (and (= (x87 x115 x115) x27) (and (and (= x115 (x87 x25 x25)) (= x113 (x87 x115 x25))) (= (x87 x27 x25) x20)))))
(assert (and (and (and (not (= x25 (x87 x25 x25))) (and (not (= (x87 x27 x27) x27)) (not (= x20 (x87 x20 x20))))) (not (= (x87 x113 x113) x113))) (not (= x115 (x87 x115 x115)))))
(assert (not (and (= (x87 x20 x20) x115) (and (and (= x20 (x87 x113 x113)) (= (x87 x20 x113) x27)) (= (x87 x115 x113) x25)))))
(assert (not (and (= (x87 x25 x25) x27) (and (and (= (x87 x115 x115) x25) (= (x87 x25 x115) x113)) (= (x87 x27 x115) x20)))))
(assert (not (and (and (= (x87 x27 x113) x20) (and (= (x87 x113 x113) x25) (= (x87 x25 x113) x115))) (= x27 (x87 x25 x25)))))
(assert (not (and (and (and (= x113 (x87 x20 x27)) (= x20 (x87 x27 x27))) (= (x87 x115 x27) x25)) (= (x87 x20 x20) x115))))
(assert (not (and (= x25 (x87 x113 x113)) (and (and (= x113 (x87 x27 x27)) (= (x87 x113 x27) x115)) (= x20 (x87 x25 x27))))))
(assert (not (and (and (and (= (x87 x113 x113) x25) (= x20 (x87 x25 x113))) (= (x87 x27 x113) x115)) (= x27 (x87 x25 x25)))))
(assert (not (and (= x20 (x87 x113 x113)) (and (and (= (x87 x25 x25) x113) (= x27 (x87 x113 x25))) (= (x87 x20 x25) x115)))))
(assert (not (and (and (= (x87 x20 x27) x113) (and (= x115 (x87 x25 x27)) (= x25 (x87 x27 x27)))) (= (x87 x25 x25) x20))))
(assert (not (and (= x115 (x87 x25 x25)) (and (and (= x113 (x87 x25 x20)) (= x25 (x87 x20 x20))) (= (x87 x115 x20) x27)))))
(assert (not (and (= x113 (x87 x27 x27)) (and (= x20 (x87 x113 x115)) (and (= x25 (x87 x27 x115)) (= (x87 x115 x115) x27))))))
(assert (not (and (= x115 (x87 x20 x20)) (and (= (x87 x115 x25) x113) (and (= x27 (x87 x20 x25)) (= (x87 x25 x25) x20))))))
(assert (not (and (and (and (= (x87 x115 x113) x27) (= x115 (x87 x113 x113))) (= (x87 x25 x113) x20)) (= x25 (x87 x115 x115)))))
(assert (not (and (and (and (= (x87 x113 x113) x27) (= (x87 x27 x113) x20)) (= x115 (x87 x25 x113))) (= x25 (x87 x27 x27)))))
(assert (not (and (and (and (= (x87 x115 x113) x27) (= (x87 x113 x113) x115)) (= (x87 x20 x113) x25)) (= x20 (x87 x115 x115)))))
(assert (not (and (and (and (= x25 (x87 x113 x27)) (= x113 (x87 x27 x27))) (= (x87 x115 x27) x20)) (= x115 (x87 x113 x113)))))
(assert (not (and (= (x87 x113 x113) x27) (and (and (= x113 (x87 x115 x115)) (= (x87 x113 x115) x25)) (= x20 (x87 x27 x115))))))
(assert (not (and (and (and (= x25 (x87 x20 x113)) (= x20 (x87 x113 x113))) (= (x87 x115 x113) x27)) (= x115 (x87 x20 x20)))))
(assert (not (and (and (= (x87 x20 x27) x25) (and (= (x87 x113 x27) x115) (= (x87 x27 x27) x113))) (= (x87 x113 x113) x20))))
(assert (not (and (and (and (= (x87 x20 x20) x113) (= (x87 x113 x20) x115)) (= (x87 x27 x20) x25)) (= x27 (x87 x113 x113)))))
(assert (not (and (= x25 (x87 x27 x27)) (and (= x20 (x87 x25 x113)) (and (= x115 (x87 x27 x113)) (= x27 (x87 x113 x113)))))))
(assert (not (and (and (= x115 (x87 x20 x25)) (and (= x27 (x87 x25 x25)) (= (x87 x27 x25) x113))) (= (x87 x27 x27) x20))))
(assert (not (and (= (x87 x113 x113) x27) (and (and (= x113 (x87 x25 x25)) (= x20 (x87 x113 x25))) (= (x87 x27 x25) x115)))))
(assert (not (and (and (= x115 (x87 x20 x27)) (and (= x25 (x87 x27 x27)) (= x113 (x87 x25 x27)))) (= (x87 x25 x25) x20))))
(assert (not (and (and (and (= x113 (x87 x25 x25)) (= (x87 x113 x25) x27)) (= x20 (x87 x115 x25))) (= (x87 x113 x113) x115))))
(assert (not (and (= x115 (x87 x27 x27)) (and (and (= (x87 x27 x113) x20) (= (x87 x113 x113) x27)) (= (x87 x115 x113) x25)))))
(assert (not (and (and (= (x87 x25 x115) x27) (and (= x20 (x87 x113 x115)) (= (x87 x115 x115) x113))) (= x25 (x87 x113 x113)))))
(assert (not (and (= x115 (x87 x25 x25)) (and (= (x87 x115 x113) x27) (and (= x20 (x87 x25 x113)) (= x25 (x87 x113 x113)))))))
(assert (not (and (and (= x20 (x87 x25 x115)) (and (= x27 (x87 x113 x115)) (= (x87 x115 x115) x113))) (= (x87 x113 x113) x25))))
(assert (not (and (= x27 (x87 x115 x115)) (and (= (x87 x27 x113) x20) (and (= x115 (x87 x113 x113)) (= (x87 x115 x113) x25))))))
(assert (let ((x144 (x87 x25 x113)) (x154 (x87 x25 x20)) (x120 (x87 x113 x115)) (x2 (x87 x25 x25)) (x133 (x87 x20 x113)) (x33 (x87 x27 x25)) (x74 (x87 x20 x25)) (x94 (x87 x25 x27)) (x95 (x87 x27 x115)) (x59 (x87 x20 x27)) (x89 (x87 x115 x115)) (x145 (x87 x27 x113)) (x110 (x87 x25 x115)) (x21 (x87 x115 x27)) (x155 (x87 x20 x20)) (x100 (x87 x20 x115)) (x6 (x87 x113 x27)) (x150 (x87 x113 x20)) (x129 (x87 x115 x25)) (x84 (x87 x115 x20)) (x79 (x87 x27 x20)) (x142 (x87 x113 x25)) (x127 (x87 x27 x27)) (x23 (x87 x113 x113)) (x112 (x87 x115 x113))) (and (and (and (and (or (= (x87 x95 x95) x115) (or (= (x87 x145 x145) x113) (or (or (= (x87 x79 x79) x20) (= x27 (x87 x127 x127))) (= x25 (x87 x33 x33))))) (or (or (or (or (= x27 (x87 x59 x59)) (= x20 (x87 x155 x155))) (= x25 (x87 x74 x74))) (= (x87 x133 x133) x113)) (= (x87 x100 x100) x115))) (or (= x115 (x87 x110 x110)) (or (= x113 (x87 x144 x144)) (or (or (= x20 (x87 x154 x154)) (= x27 (x87 x94 x94))) (= (x87 x2 x2) x25))))) (or (or (= x113 (x87 x23 x23)) (or (= (x87 x142 x142) x25) (or (= (x87 x6 x6) x27) (= (x87 x150 x150) x20)))) (= (x87 x120 x120) x115))) (or (or (= (x87 x112 x112) x113) (or (or (= (x87 x84 x84) x20) (= (x87 x21 x21) x27)) (= (x87 x129 x129) x25))) (= x115 (x87 x89 x89))))))
(assert (not (and (= x113 (x87 x25 x25)) (and (and (= (x87 x25 x20) x27) (= (x87 x20 x20) x25)) (= (x87 x113 x20) x115)))))
(assert (not (and (= x27 (x87 x25 x25)) (and (and (= (x87 x20 x20) x25) (= (x87 x25 x20) x115)) (= (x87 x27 x20) x113)))))
(assert (not (and (and (= x25 (x87 x113 x115)) (and (= x27 (x87 x115 x115)) (= x20 (x87 x27 x115)))) (= (x87 x27 x27) x113))))
(assert (not (and (and (= x25 (x87 x113 x27)) (and (= x115 (x87 x20 x27)) (= (x87 x27 x27) x20))) (= x113 (x87 x20 x20)))))
(assert (not (and (= x113 (x87 x20 x20)) (and (= x115 (x87 x113 x27)) (and (= x20 (x87 x27 x27)) (= (x87 x20 x27) x25))))))
(assert (not (and (and (and (= (x87 x20 x20) x25) (= x113 (x87 x25 x20))) (= x115 (x87 x27 x20))) (= (x87 x25 x25) x27))))
(assert (not (and (= (x87 x25 x25) x113) (and (and (= x25 (x87 x115 x115)) (= (x87 x25 x115) x27)) (= (x87 x113 x115) x20)))))
(assert (not (and (and (and (= x25 (x87 x20 x20)) (= x115 (x87 x25 x20))) (= x27 (x87 x113 x20))) (= x113 (x87 x25 x25)))))
(assert (not (and (and (= x25 (x87 x20 x113)) (and (= x115 (x87 x27 x113)) (= x27 (x87 x113 x113)))) (= x20 (x87 x27 x27)))))
(assert (not (and (and (and (= x27 (x87 x115 x115)) (= (x87 x27 x115) x113)) (= (x87 x20 x115) x25)) (= x20 (x87 x27 x27)))))
(assert (and (and (not (= (x87 (x87 x113 x113) x113) x113)) (and (and (not (= x20 (x87 (x87 x20 x20) x20))) (not (= x27 (x87 (x87 x27 x27) x27)))) (not (= x25 (x87 (x87 x25 x25) x25))))) (not (= x115 (x87 (x87 x115 x115) x115)))))
(assert (not (and (= (x87 x27 x27) x115) (and (= (x87 x115 x113) x20) (and (= (x87 x113 x113) x27) (= (x87 x27 x113) x25))))))
(assert (not (and (and (= x115 (x87 x27 x113)) (and (= x25 (x87 x20 x113)) (= x20 (x87 x113 x113)))) (= (x87 x20 x20) x27))))
(assert (not (and (and (and (= (x87 x25 x27) x113) (= x25 (x87 x27 x27))) (= (x87 x115 x27) x20)) (= (x87 x25 x25) x115))))
(assert (not (and (= (x87 x20 x20) x25) (and (= (x87 x25 x115) x113) (and (= x27 (x87 x20 x115)) (= (x87 x115 x115) x20))))))
(assert (not (and (and (and (= x20 (x87 x25 x25)) (= x115 (x87 x20 x25))) (= x27 (x87 x113 x25))) (= (x87 x20 x20) x113))))
(assert (not (and (= (x87 x27 x27) x25) (and (= x115 (x87 x25 x20)) (and (= x27 (x87 x20 x20)) (= (x87 x27 x20) x113))))))
(assert (not (and (= (x87 x113 x113) x25) (and (= x115 (x87 x25 x20)) (and (= x27 (x87 x113 x20)) (= x113 (x87 x20 x20)))))))
(assert (not (and (= (x87 x113 x113) x115) (and (and (= (x87 x113 x20) x27) (= (x87 x20 x20) x113)) (= x25 (x87 x115 x20))))))
(assert (not (and (= (x87 x113 x113) x20) (and (= (x87 x20 x115) x27) (and (= x25 (x87 x113 x115)) (= x113 (x87 x115 x115)))))))
(assert (not (and (and (and (= (x87 x113 x113) x25) (= (x87 x25 x113) x115)) (= (x87 x20 x113) x27)) (= x20 (x87 x25 x25)))))
(assert (not (and (= x113 (x87 x25 x25)) (and (= x27 (x87 x113 x115)) (and (= x25 (x87 x115 x115)) (= (x87 x25 x115) x20))))))
(assert (not (and (and (= x115 (x87 x113 x27)) (and (= x25 (x87 x27 x27)) (= x20 (x87 x25 x27)))) (= x113 (x87 x25 x25)))))
(assert (not (and (and (= x25 (x87 x27 x115)) (and (= x20 (x87 x113 x115)) (= x113 (x87 x115 x115)))) (= (x87 x113 x113) x27))))
(assert (not (and (and (and (= x20 (x87 x115 x115)) (= (x87 x20 x115) x27)) (= (x87 x113 x115) x25)) (= (x87 x20 x20) x113))))
(assert (not (and (and (and (= x113 (x87 x20 x25)) (= x20 (x87 x25 x25))) (= (x87 x115 x25) x27)) (= x115 (x87 x20 x20)))))
(assert (not (and (and (= (x87 x113 x115) x27) (and (= (x87 x20 x115) x25) (= x20 (x87 x115 x115)))) (= x113 (x87 x20 x20)))))
(assert (not (and (and (= x25 (x87 x115 x20)) (and (= x113 (x87 x27 x20)) (= (x87 x20 x20) x27))) (= (x87 x27 x27) x115))))
(assert (not (and (= (x87 x20 x20) x27) (and (= x25 (x87 x27 x115)) (and (= (x87 x20 x115) x113) (= x20 (x87 x115 x115)))))))
(assert (not (and (= x27 (x87 x25 x25)) (and (and (= (x87 x25 x115) x20) (= (x87 x115 x115) x25)) (= x113 (x87 x27 x115))))))
(assert (not (and (and (and (= x113 (x87 x115 x27)) (= x115 (x87 x27 x27))) (= (x87 x20 x27) x25)) (= (x87 x115 x115) x20))))
(assert (not (and (= (x87 x115 x115) x25) (and (and (= x115 (x87 x20 x20)) (= x27 (x87 x115 x20))) (= x113 (x87 x25 x20))))))
(assert (not (and (= x20 (x87 x113 x113)) (and (= (x87 x20 x115) x25) (and (= (x87 x115 x115) x113) (= x27 (x87 x113 x115)))))))
(assert (let ((x145 (x87 x113 x113)) (x95 (x87 x115 x115)) (x127 (x87 x27 x27)) (x79 (x87 x20 x20)) (x33 (x87 x25 x25))) (or (= (x87 x95 x95) x115) (or (or (or (= (x87 x79 x79) x20) (= x27 (x87 x127 x127))) (= (x87 x33 x33) x25)) (= (x87 x145 x145) x113)))))
(assert (not (and (= (x87 x115 x115) x20) (and (= x27 (x87 x20 x113)) (and (= x25 (x87 x115 x113)) (= (x87 x113 x113) x115))))))
(assert (not (and (and (and (= x25 (x87 x115 x115)) (= (x87 x25 x115) x27)) (= (x87 x20 x115) x113)) (= (x87 x25 x25) x20))))
(assert (not (and (and (= (x87 x115 x20) x27) (and (= x113 (x87 x20 x20)) (= x25 (x87 x113 x20)))) (= (x87 x113 x113) x115))))
(assert (not (and (= x113 (x87 x20 x20)) (and (and (= (x87 x20 x25) x27) (= (x87 x25 x25) x20)) (= x115 (x87 x113 x25))))))
(assert (let ((x154 (x87 x25 x20)) (x142 (x87 x113 x25)) (x74 (x87 x20 x25)) (x150 (x87 x113 x20)) (x120 (x87 x113 x115)) (x95 (x87 x27 x115)) (x100 (x87 x20 x115)) (x2 (x87 x25 x25)) (x21 (x87 x115 x27)) (x94 (x87 x25 x27)) (x145 (x87 x27 x113)) (x144 (x87 x25 x113)) (x23 (x87 x113 x113)) (x84 (x87 x115 x20)) (x6 (x87 x113 x27)) (x112 (x87 x115 x113)) (x110 (x87 x25 x115)) (x127 (x87 x27 x27)) (x59 (x87 x20 x27)) (x133 (x87 x20 x113)) (x129 (x87 x115 x25)) (x33 (x87 x27 x25)) (x155 (x87 x20 x20)) (x79 (x87 x27 x20)) (x89 (x87 x115 x115))) (and (and (and (and (and (and (and (and (or (or (or (= x127 x25) (or (= x127 x20) (= x127 x27))) (= x113 x127)) (= x127 x115)) (or (= x79 x115) (or (= x113 x79) (or (= x79 x25) (or (= x79 x27) (= x20 x79)))))) (or (or (or (= x33 x25) (or (= x33 x20) (= x27 x33))) (= x113 x33)) (= x115 x33))) (or (or (or (= x25 x145) (or (= x145 x27) (= x145 x20))) (= x145 x113)) (= x145 x115))) (or (= x95 x115) (or (or (= x25 x95) (or (= x20 x95) (= x27 x95))) (= x95 x113)))) (and (or (= x100 x115) (or (= x113 x100) (or (or (= x100 x20) (= x100 x27)) (= x25 x100)))) (and (and (or (or (= x113 x74) (or (= x25 x74) (or (= x74 x20) (= x27 x74)))) (= x115 x74)) (and (or (= x115 x155) (or (= x113 x155) (or (= x25 x155) (or (= x155 x27) (= x155 x20))))) (or (= x59 x115) (or (= x59 x113) (or (= x59 x25) (or (= x59 x27) (= x20 x59))))))) (or (or (= x113 x133) (or (= x25 x133) (or (= x20 x133) (= x27 x133)))) (= x133 x115))))) (and (or (or (or (= x25 x110) (or (= x27 x110) (= x110 x20))) (= x110 x113)) (= x115 x110)) (and (or (= x144 x115) (or (= x113 x144) (or (= x144 x25) (or (= x20 x144) (= x27 x144))))) (and (or (or (= x113 x2) (or (or (= x2 x20) (= x27 x2)) (= x2 x25))) (= x2 x115)) (and (or (or (or (or (= x154 x20) (= x154 x27)) (= x25 x154)) (= x154 x113)) (= x115 x154)) (or (= x115 x94) (or (or (= x94 x25) (or (= x20 x94) (= x94 x27))) (= x113 x94)))))))) (and (and (and (and (or (or (= x113 x150) (or (= x25 x150) (or (= x150 x27) (= x20 x150)))) (= x150 x115)) (or (or (= x113 x6) (or (= x6 x25) (or (= x6 x27) (= x6 x20)))) (= x115 x6))) (or (= x142 x115) (or (= x142 x113) (or (or (= x142 x20) (= x27 x142)) (= x25 x142))))) (or (= x23 x115) (or (or (or (= x23 x20) (= x23 x27)) (= x25 x23)) (= x23 x113)))) (or (= x120 x115) (or (or (= x25 x120) (or (= x120 x27) (= x20 x120))) (= x113 x120))))) (and (and (and (or (or (or (= x25 x129) (or (= x20 x129) (= x27 x129))) (= x113 x129)) (= x115 x129)) (and (or (or (= x113 x21) (or (= x21 x25) (or (= x21 x27) (= x21 x20)))) (= x115 x21)) (or (or (= x113 x84) (or (or (= x84 x27) (= x20 x84)) (= x25 x84))) (= x115 x84)))) (or (= x112 x115) (or (= x113 x112) (or (= x112 x25) (or (= x20 x112) (= x27 x112)))))) (or (= x89 x115) (or (or (or (= x20 x89) (= x89 x27)) (= x89 x25)) (= x113 x89)))))))
(assert (not (and (= x113 (x87 x115 x115)) (and (= x25 (x87 x113 x20)) (and (= x115 (x87 x20 x20)) (= (x87 x115 x20) x27))))))
(assert (not (and (= x25 (x87 x20 x20)) (and (and (= (x87 x20 x113) x27) (= x20 (x87 x113 x113))) (= x115 (x87 x25 x113))))))
(assert (not (and (= x115 (x87 x25 x25)) (and (and (= x27 (x87 x25 x20)) (= x25 (x87 x20 x20))) (= (x87 x115 x20) x113)))))
(assert (not (and (= (x87 x25 x25) x115) (and (= (x87 x115 x113) x20) (and (= x27 (x87 x25 x113)) (= x25 (x87 x113 x113)))))))
(assert (not (and (= (x87 x20 x20) x27) (and (= (x87 x27 x25) x115) (and (= (x87 x20 x25) x113) (= (x87 x25 x25) x20))))))
(assert (not (and (and (= x113 (x87 x25 x20)) (and (= x27 (x87 x20 x20)) (= x115 (x87 x27 x20)))) (= (x87 x27 x27) x25))))
(assert (not (and (= x115 (x87 x20 x20)) (and (= (x87 x115 x27) x113) (and (= (x87 x27 x27) x20) (= (x87 x20 x27) x25))))))
(assert (let ((x145 (x87 x113 x113)) (x95 (x87 x115 x115)) (x33 (x87 x25 x25)) (x79 (x87 x20 x20)) (x127 (x87 x27 x27))) (or (and (not (= x115 x95)) (and (not (= x145 x115)) (and (and (not (= x127 x115)) (not (= x115 x79))) (not (= x115 x33))))) (or (or (and (not (= x25 x95)) (and (and (and (not (= x25 x127)) (not (= x79 x25))) (not (= x25 x33))) (not (= x25 x145)))) (or (and (not (= x95 x20)) (and (and (not (= x33 x20)) (and (not (= x79 x20)) (not (= x20 x127)))) (not (= x145 x20)))) (and (and (and (not (= x27 x33)) (and (not (= x27 x127)) (not (= x79 x27)))) (not (= x145 x27))) (not (= x27 x95))))) (and (not (= x113 x95)) (and (not (= x145 x113)) (and (not (= x113 x33)) (and (not (= x127 x113)) (not (= x113 x79))))))))))
(assert (not (and (and (and (= (x87 x115 x115) x27) (= (x87 x27 x115) x113)) (= (x87 x25 x115) x20)) (= x25 (x87 x27 x27)))))
(assert (and (and (not (= x25 x115)) (and (not (= x113 x25)) (and (not (= x115 x20)) (and (not (= x113 x20)) (and (not (= x25 x20)) (and (not (= x27 x115)) (and (and (not (= x25 x27)) (not (= x27 x20))) (not (= x27 x113))))))))) (not (= x113 x115))))
(assert (let ((x81 (x87 x20 x20)) (x96 (x87 x113 x20)) (x103 (x87 x113 x25)) (x93 (x87 x27 x20)) (x76 (x87 x27 x27)) (x48 (x87 x115 x113)) (x1 (x87 x25 x27)) (x67 (x87 x20 x113)) (x77 (x87 x25 x113)) (x15 (x87 x115 x27)) (x4 (x87 x25 x115)) (x69 (x87 x20 x115)) (x24 (x87 x115 x25)) (x5 (x87 x25 x25)) (x126 (x87 x115 x115)) (x153 (x87 x113 x115)) (x102 (x87 x27 x25)) (x7 (x87 x20 x25)) (x29 (x87 x113 x113)) (x135 (x87 x25 x20)) (x101 (x87 x27 x113)) (x106 (x87 x20 x27)) (x149 (x87 x115 x20)) (x88 (x87 x27 x115)) (x134 (x87 x113 x27))) (let ((x95 (not (= x27 x1))) (x2 (not (= x27 x67))) (x136 (not (= x15 x115))) (x8 (not (= x20 x7))) (x98 (not (= x106 x20))) (x55 (not (= x25 x24))) (x79 (not (= x106 x27))) (x129 (not (= x27 x48))) (x144 (not (= x103 x27))) (x131 (not (= x101 x113))) (x11 (not (= x81 x20))) (x3 (not (= x25 x126))) (x31 (not (= x24 x113))) (x140 (not (= x20 x88))) (x21 (not (= x24 x27))) (x157 (not (= x77 x20))) (x75 (not (= x20 x134))) (x84 (not (= x4 x27))) (x138 (not (= x7 x25))) (x19 (not (= x20 x76))) (x52 (not (= x25 x88))) (x22 (not (= x25 x103))) (x78 (not (= x102 x113))) (x107 (not (= x81 x113))) (x56 (not (= x48 x115))) (x154 (not (= x96 x27))) (x130 (not (= x20 x29))) (x32 (not (= x1 x25))) (x119 (not (= x5 x25))) (x68 (not (= x103 x113))) (x57 (not (= x76 x115))) (x74 (not (= x7 x27))) (x127 (not (= x76 x27))) (x150 (not (= x27 x15))) (x44 (not (= x96 x25))) (x30 (not (= x25 x69))) (x111 (not (= x25 x4))) (x53 (not (= x20 x103))) (x86 (not (= x76 x25))) (x63 (not (= x81 x115))) (x65 (not (= x106 x25))) (x143 (not (= x76 x113))) (x94 (not (= x27 x101))) (x99 (not (= x101 x25))) (x18 (not (= x113 x149))) (x146 (not (= x134 x115))) (x133 (not (= x5 x27))) (x66 (not (= x113 x69))) (x104 (not (= x149 x20))) (x12 (not (= x126 x20))) (x54 (not (= x25 x93))) (x37 (not (= x153 x113))) (x38 (not (= x88 x115))) (x117 (not (= x7 x113))) (x89 (not (= x27 x126))) (x85 (not (= x153 x25))) (x132 (not (= x102 x115))) (x114 (not (= x25 x29))) (x42 (not (= x96 x20))) (x28 (not (= x25 x135))) (x58 (not (= x20 x15))) (x49 (not (= x20 x67))) (x116 (not (= x113 x135))) (x141 (not (= x115 x106))) (x26 (not (= x25 x15))) (x92 (not (= x135 x20))) (x23 (not (= x27 x149))) (x121 (not (= x101 x115))) (x6 (not (= x27 x29))) (x151 (not (= x25 x81))) (x47 (not (= x115 x69))) (x39 (not (= x113 x5))) (x72 (not (= x115 x7))) (x62 (not (= x135 x115))) (x156 (not (= x96 x115))) (x91 (not (= x115 x126))) (x71 (not (= x115 x93))) (x125 (not (= x113 x126))) (x59 (not (= x102 x27))) (x46 (not (= x113 x48))) (x61 (not (= x134 x113))) (x124 (not (= x113 x77))) (x108 (not (= x149 x115))) (x73 (not (= x48 x25))) (x50 (not (= x115 x1))) (x109 (not (= x15 x113))) (x16 (not (= x20 x4))) (x80 (not (= x67 x113))) (x17 (not (= x4 x115))) (x14 (not (= x20 x5))) (x139 (not (= x113 x93))) (x36 (not (= x20 x69))) (x142 (not (= x27 x88))) (x152 (not (= x102 x25))) (x137 (not (= x25 x149))) (x64 (not (= x102 x20))) (x90 (not (= x101 x20))) (x45 (not (= x29 x113))) (x35 (not (= x115 x24))) (x110 (not (= x77 x27))) (x118 (not (= x48 x20))) (x51 (not (= x25 x77))) (x97 (not (= x1 x20))) (x10 (not (= x25 x134))) (x34 (not (= x103 x115))) (x122 (not (= x88 x113))) (x100 (not (= x27 x134))) (x112 (not (= x27 x153))) (x60 (not (= x113 x96))) (x83 (not (= x115 x5))) (x9 (not (= x20 x24))) (x82 (not (= x67 x115))) (x120 (not (= x27 x69))) (x147 (not (= x20 x93))) (x43 (not (= x67 x25))) (x33 (not (= x27 x93))) (x148 (not (= x4 x113))) (x70 (not (= x20 x153))) (x155 (not (= x27 x135))) (x145 (not (= x27 x81))) (x128 (not (= x115 x29))) (x123 (not (= x153 x115))) (x105 (not (= x113 x1))) (x40 (not (= x77 x115))) (x158 (not (= x113 x106)))) (or (and (and (and (or x56 x123) (and (or x35 x17) (and (or x136 x38) (or x47 x108)))) (or x91 x91)) (and (and (and (and (or x40 x34) (and (and (or x50 x132) (or x62 x72)) (or x83 x83))) (or x35 x17)) (and (and (or x136 x38) (and (and (and (or x57 x57) (or x71 x141)) (or x50 x132)) (or x146 x121))) (and (or x47 x108) (and (or x82 x156) (and (and (or x141 x71) (or x63 x63)) (or x72 x62)))))) (and (or x56 x123) (and (or x128 x128) (and (and (or x82 x156) (or x121 x146)) (or x34 x40)))))) (or (or (or (and (and (and (or x112 x129) (and (and (or x144 x110) (and (or x154 x2) (or x94 x100))) (or x6 x6))) (and (and (and (or x142 x150) (and (and (and (or x127 x127) (or x79 x33)) (or x95 x59)) (or x100 x94))) (and (and (and (or x155 x74) (and (or x145 x145) (or x33 x79))) (or x2 x154)) (or x23 x120))) (and (and (or x144 x110) (and (and (or x155 x74) (or x95 x59)) (or x133 x133))) (or x84 x21)))) (and (or x89 x89) (and (and (or x84 x21) (and (or x150 x142) (or x23 x120))) (or x112 x129)))) (and (and (and (and (and (and (or x75 x90) (and (and (or x19 x19) (or x98 x147)) (or x64 x97))) (or x140 x58)) (and (and (and (and (or x11 x11) (or x147 x98)) (or x92 x8)) (or x49 x42)) (or x104 x36))) (and (or x9 x16) (and (and (or x14 x14) (and (or x97 x64) (or x92 x8))) (or x53 x157)))) (and (or x70 x118) (and (and (or x53 x157) (and (or x49 x42) (or x75 x90))) (or x130 x130)))) (and (or x12 x12) (and (and (or x9 x16) (and (or x104 x36) (or x58 x140))) (or x70 x118))))) (and (and (and (or x73 x85) (and (or x111 x55) (and (or x52 x26) (or x137 x30)))) (or x3 x3)) (and (and (and (or x111 x55) (and (and (and (or x138 x28) (or x32 x152)) (or x119 x119)) (or x51 x22))) (and (and (or x26 x52) (and (and (or x152 x32) (and (or x65 x54) (or x86 x86))) (or x99 x10))) (and (or x30 x137) (and (or x43 x44) (and (and (or x151 x151) (or x65 x54)) (or x138 x28)))))) (and (or x73 x85) (and (and (and (or x99 x10) (or x43 x44)) (or x22 x51)) (or x114 x114)))))) (and (and (and (or x46 x37) (and (or x45 x45) (and (or x124 x68) (and (or x80 x60) (or x131 x61))))) (and (and (and (and (or x60 x80) (and (and (or x158 x139) (or x107 x107)) (or x117 x116))) (or x66 x18)) (and (and (or x61 x131) (and (and (or x139 x158) (or x143 x143)) (or x105 x78))) (or x109 x122))) (and (or x31 x148) (and (or x68 x124) (and (or x39 x39) (and (or x78 x105) (or x116 x117))))))) (and (and (and (or x148 x31) (and (or x66 x18) (or x122 x109))) (or x37 x46)) (or x125 x125))))))))
(assert (not (and (= x115 (x87 x113 x113)) (and (= x25 (x87 x115 x27)) (and (= (x87 x113 x27) x20) (= x113 (x87 x27 x27)))))))
(assert (not (and (= x113 (x87 x115 x115)) (and (and (= (x87 x115 x27) x20) (= x115 (x87 x27 x27))) (= x25 (x87 x113 x27))))))
(assert (not (and (= (x87 x113 x113) x25) (and (and (= x115 (x87 x113 x20)) (= (x87 x20 x20) x113)) (= (x87 x25 x20) x27)))))
(assert (not (and (and (= (x87 x113 x25) x27) (and (= x115 (x87 x25 x25)) (= x20 (x87 x115 x25)))) (= (x87 x115 x115) x113))))
(assert (not (and (and (= (x87 x113 x27) x20) (and (= (x87 x27 x27) x25) (= (x87 x25 x27) x115))) (= x113 (x87 x25 x25)))))
(assert (not (and (= x27 (x87 x20 x20)) (and (= (x87 x27 x113) x25) (and (= (x87 x113 x113) x20) (= x115 (x87 x20 x113)))))))
(assert (not (and (and (= (x87 x27 x25) x113) (and (= x20 (x87 x25 x25)) (= (x87 x20 x25) x115))) (= (x87 x20 x20) x27))))
(assert (not (and (and (= x25 (x87 x113 x20)) (and (= (x87 x20 x20) x27) (= (x87 x27 x20) x115))) (= x113 (x87 x27 x27)))))
(assert (let ((x84 (x87 x20 x115)) (x2 (x87 x25 x25)) (x23 (x87 x113 x113)) (x33 (x87 x25 x27)) (x100 (x87 x115 x20)) (x133 (x87 x113 x20)) (x142 (x87 x25 x113)) (x6 (x87 x27 x113)) (x21 (x87 x27 x115)) (x112 (x87 x113 x115)) (x154 (x87 x20 x25)) (x79 (x87 x20 x27)) (x129 (x87 x25 x115)) (x59 (x87 x27 x20)) (x95 (x87 x115 x27)) (x127 (x87 x27 x27)) (x110 (x87 x115 x25)) (x155 (x87 x20 x20)) (x120 (x87 x115 x113)) (x150 (x87 x20 x113)) (x89 (x87 x115 x115)) (x144 (x87 x113 x25)) (x74 (x87 x25 x20)) (x94 (x87 x27 x25)) (x145 (x87 x113 x27))) (and (and (and (and (and (and (not (= x89 x84)) (and (and (and (not (= x89 x21)) (and (not (= x21 x112)) (and (not (= x84 x21)) (not (= x21 x129))))) (not (= x129 x84))) (not (= x112 x84)))) (not (= x112 x129))) (not (= x129 x89))) (not (= x89 x112))) (and (and (and (and (and (and (not (= x133 x74)) (and (not (= x155 x100)) (and (and (and (not (= x59 x100)) (and (not (= x59 x133)) (and (not (= x74 x59)) (not (= x155 x59))))) (not (= x74 x155))) (not (= x155 x133))))) (not (= x100 x74))) (not (= x100 x133))) (and (and (and (not (= x33 x145)) (and (not (= x79 x95)) (and (not (= x79 x145)) (and (and (not (= x95 x127)) (and (not (= x127 x145)) (and (not (= x127 x79)) (not (= x33 x127))))) (not (= x33 x79)))))) (not (= x95 x33))) (not (= x95 x145)))) (and (and (and (and (and (not (= x144 x154)) (and (and (not (= x94 x110)) (and (not (= x144 x94)) (and (not (= x154 x94)) (not (= x2 x94))))) (not (= x2 x154)))) (not (= x110 x154))) (not (= x2 x144))) (not (= x110 x2))) (not (= x110 x144)))) (and (and (not (= x120 x142)) (and (not (= x142 x23)) (and (not (= x120 x150)) (and (and (and (and (not (= x6 x23)) (and (not (= x6 x150)) (not (= x6 x142)))) (not (= x6 x120))) (not (= x150 x142))) (not (= x23 x150)))))) (not (= x23 x120))))) (and (and (and (not (= x110 x89)) (and (not (= x110 x120)) (and (not (= x100 x89)) (and (not (= x120 x100)) (and (and (not (= x89 x95)) (and (and (not (= x110 x95)) (not (= x100 x95))) (not (= x95 x120)))) (not (= x100 x110))))))) (not (= x120 x89))) (and (and (and (and (not (= x2 x129)) (and (not (= x2 x142)) (and (not (= x129 x74)) (and (not (= x74 x142)) (and (and (not (= x129 x33)) (and (and (not (= x2 x33)) (not (= x33 x74))) (not (= x142 x33)))) (not (= x2 x74))))))) (not (= x129 x142))) (and (and (and (and (and (and (and (not (= x94 x59)) (and (and (not (= x127 x6)) (and (not (= x127 x59)) (not (= x94 x127)))) (not (= x21 x127)))) (not (= x59 x6))) (not (= x59 x21))) (not (= x94 x6))) (not (= x21 x94))) (not (= x21 x6))) (and (not (= x150 x84)) (and (not (= x84 x154)) (and (not (= x150 x154)) (and (and (and (and (not (= x84 x79)) (and (and (not (= x155 x79)) (not (= x154 x79))) (not (= x150 x79)))) (not (= x154 x155))) (not (= x155 x150))) (not (= x155 x84)))))))) (and (and (not (= x144 x112)) (and (not (= x144 x23)) (and (and (and (and (and (and (not (= x145 x133)) (not (= x145 x144))) (not (= x145 x23))) (not (= x112 x145))) (not (= x133 x144))) (not (= x23 x133))) (not (= x133 x112))))) (not (= x23 x112))))))))
(assert (not (and (= (x87 x20 x20) x25) (and (and (= x20 (x87 x113 x113)) (= x115 (x87 x20 x113))) (= (x87 x25 x113) x27)))))
(assert (not (and (and (and (= (x87 x25 x25) x113) (= (x87 x113 x25) x115)) (= (x87 x20 x25) x27)) (= (x87 x113 x113) x20))))
(assert (not (and (and (and (= (x87 x27 x25) x113) (= x27 (x87 x25 x25))) (= (x87 x115 x25) x20)) (= x115 (x87 x27 x27)))))
(assert (not (and (and (= x113 (x87 x27 x115)) (and (= x25 (x87 x20 x115)) (= x20 (x87 x115 x115)))) (= x27 (x87 x20 x20)))))
(assert (let ((x144 (x87 x113 x25)) (x142 (x87 x27 x115)) (x110 (x87 x25 x113)) (x100 (x87 x113 x27)) (x2 (x87 x20 x113)) (x23 (x87 x115 x20)) (x150 (x87 x115 x27)) (x74 (x87 x20 x25)) (x154 (x87 x113 x20)) (x59 (x87 x27 x25)) (x84 (x87 x25 x115)) (x89 (= x115 (x87 x115 x115))) (x6 (= x113 (x87 x113 x113))) (x79 (x87 x20 x27)) (x95 (x87 x25 x27)) (x21 (x87 x115 x25)) (x120 (x87 x20 x115)) (x129 (x87 x115 x113)) (x127 (= (x87 x27 x27) x27)) (x94 (x87 x27 x113)) (x155 (x87 x25 x20)) (x112 (x87 x113 x115)) (x133 (= x25 (x87 x25 x25))) (x33 (x87 x27 x20)) (x145 (= (x87 x20 x20) x20))) (or (or (or (or (and x6 x6) (or (or (and (= x94 x113) (= x113 x100)) (and (= x154 x113) (= x2 x113))) (and (= x113 x110) (= x144 x113)))) (and (= x113 x112) (= x113 x129))) (or (or (and (= x25 x21) (= x25 x84)) (or (and (= x110 x25) (= x25 x144)) (or (or (and (= x74 x25) (= x25 x155)) (and (= x59 x25) (= x95 x25))) (and x133 x133)))) (or (or (and (= x142 x27) (= x150 x27)) (or (and (= x27 x94) (= x27 x100)) (or (or (and x127 x127) (and (= x79 x27) (= x33 x27))) (and (= x59 x27) (= x95 x27))))) (or (and (= x20 x23) (= x120 x20)) (or (or (or (and (= x79 x20) (= x20 x33)) (and x145 x145)) (and (= x74 x20) (= x20 x155))) (and (= x154 x20) (= x20 x2))))))) (or (or (or (or (and (= x120 x115) (= x23 x115)) (and (= x142 x115) (= x115 x150))) (and (= x21 x115) (= x115 x84))) (and (= x129 x115) (= x115 x112))) (and x89 x89)))))
(assert (not (and (and (and (= (x87 x20 x20) x27) (= (x87 x27 x20) x25)) (= x113 (x87 x115 x20))) (= (x87 x27 x27) x115))))
(assert (not (and (and (and (= x115 (x87 x25 x25)) (= x27 (x87 x115 x25))) (= x113 (x87 x20 x25))) (= x20 (x87 x115 x115)))))
(assert (not (and (and (and (= x115 (x87 x27 x27)) (= x113 (x87 x115 x27))) (= (x87 x25 x27) x20)) (= (x87 x115 x115) x25))))
(assert (not (and (and (and (= (x87 x113 x113) x27) (= (x87 x27 x113) x25)) (= (x87 x20 x113) x115)) (= (x87 x27 x27) x20))))
(assert (not (and (and (and (= x113 (x87 x25 x115)) (= (x87 x115 x115) x25)) (= (x87 x20 x115) x27)) (= x20 (x87 x25 x25)))))
(assert (not (and (and (= (x87 x20 x25) x113) (and (= x27 (x87 x25 x25)) (= x115 (x87 x27 x25)))) (= (x87 x27 x27) x20))))
(assert (not (and (and (= (x87 x20 x27) x115) (and (= x113 (x87 x27 x27)) (= x25 (x87 x113 x27)))) (= (x87 x113 x113) x20))))
(assert (not (and (= x20 (x87 x115 x115)) (and (= (x87 x20 x27) x113) (and (= x115 (x87 x27 x27)) (= (x87 x115 x27) x25))))))
(assert (not (and (= x20 (x87 x25 x25)) (and (= x115 (x87 x20 x113)) (and (= x27 (x87 x25 x113)) (= (x87 x113 x113) x25))))))
(assert (not (and (and (= x115 (x87 x113 x20)) (and (= (x87 x27 x20) x25) (= (x87 x20 x20) x27))) (= (x87 x27 x27) x113))))
(assert (not (and (= x115 (x87 x27 x27)) (and (and (= (x87 x27 x25) x20) (= (x87 x25 x25) x27)) (= x113 (x87 x115 x25))))))
(check-sat)
(exit)
